
  32    4
  10   10   10   10

   0   0   0   0   0   3 2 5 31 
   1  10  10  10  10   3 11 9 3 
   9  10  10  10  10   2 6 4 
   8  10  10  10  10   3 30 13 7 
   9  10  10  10  10   2 13 7 
   2  10  10  10  10   3 19 16 8 
   4  10  10  10  10   2 16 8 
   3  10  10  10  10   1 10 
   9  10  10  10  10   5 30 29 22 16 15 
   2  10  10  10  10   2 22 12 
   9  10  10  10  10   3 30 16 15 
   7  10  10  10  10   2 28 14 
  10  10  10  10  10   2 16 15 
   3  10  10  10  10   2 29 15 
   2  10  10  10  10   2 27 17 
   2  10  10  10  10   2 28 17 
   9  10  10  10  10   1 18 
   4  10  10  10  10   3 26 24 20 
   2  10  10  10  10   2 29 23 
   9  10  10  10  10   1 21 
   4  10  10  10  10   1 23 
   9  10  10  10  10   1 23 
  10  10  10  10  10   1 25 
   2  10  10  10  10   1 25 
   1  10  10  10  10   1 32
   9  10  10  10  10   1 32
   7  10  10  10  10   1 32
   7  10  10  10  10   1 32
   4  10  10  10  10   1 32
  10  10  10  10  10   1 32
   8  10  10  10  10   1 32
   0   0   0   0   0   0 
